Normalized Data/p04_1_normalized_split0.vrp
NAME:p04_1_NORMALIZED_split
BEST_KNOWN: 0
COMMENT: 0
DIMENSION: 620
CAPACITY: 100
EDGE_WEIGHT_FORMAT: FUNCTION
EDGE_WEIGHT_TYPE: EXACT_2D
NODE_COORD_SECTION
1 0.00000 0.00000
2 13 -1
3 13 -1
4 13 -1
5 20 14
6 20 14
7 22 -29
8 22 -29
9 22 -29
10 22 -29
11 -27 -22
12 -27 -22
13 -27 -22
14 -27 -22
15 5 39
16 5 39
17 5 39
18 20 -2
19 20 -2
20 20 -2
21 20 -2
22 20 -2
23 20 -2
24 -17 45
25 -17 45
26 -17 45
27 -17 45
28 28 -8
29 28 -8
30 -22 5
31 -22 5
32 -22 5
33 -22 5
34 -22 5
35 -10 7
36 -10 7
37 -10 7
38 -10 7
39 -10 7
40 -10 7
41 43 48
42 43 48
43 43 48
44 43 48
45 43 48
46 43 48
47 11 -42
48 11 -42
49 11 -42
50 11 -42
51 -49 39
52 -49 39
53 -49 39
54 -49 39
55 -49 39
56 -49 39
57 -3 48
58 -3 48
59 -3 48
60 -3 48
61 -3 48
62 -26 -44
63 -26 -44
64 -26 -44
65 -26 -44
66 -26 -44
67 -37 -18
68 -37 -18
69 -37 -18
70 -45 -21
71 -45 -21
72 -45 -21
73 0 9
74 0 9
75 0 9
76 0 9
77 0 9
78 4 21
79 4 21
80 4 21
81 10 49
82 10 49
83 10 49
84 10 49
85 10 49
86 10 49
87 -20 -14
88 -20 -14
89 -20 -14
90 2 -31
91 2 -31
92 2 -31
93 2 -31
94 2 -31
95 2 -31
96 -26 -3
97 -26 -3
98 -27 -40
99 -27 -40
100 -27 -40
101 -27 -40
102 -27 -40
103 -32 23
104 -32 23
105 -32 23
106 10 -10
107 10 -10
108 10 -10
109 10 -10
110 10 -10
111 44 -9
112 44 -9
113 -21 31
114 -21 31
115 -21 31
116 -21 31
117 -21 31
118 7 -4
119 7 -4
120 7 -4
121 18 36
122 18 36
123 18 36
124 18 36
125 18 36
126 18 36
127 18 36
128 -46 22
129 -46 22
130 -46 22
131 -18 -45
132 -18 -45
133 -18 -45
134 -18 -45
135 -18 -45
136 -39 20
137 -39 20
138 -39 20
139 -39 20
140 -39 20
141 -39 20
142 10 32
143 10 32
144 10 32
145 10 32
146 10 32
147 33 -45
148 33 -45
149 33 -45
150 48 -35
151 48 -35
152 48 -35
153 26 -31
154 26 -31
155 26 -31
156 26 -31
157 -18 -24
158 -18 -24
159 -18 -24
160 5 36
161 5 36
162 5 36
163 5 36
164 5 36
165 45 12
166 45 12
167 45 12
168 45 12
169 45 12
170 45 12
171 45 12
172 -12 -3
173 -12 -3
174 14 -27
175 14 -27
176 14 -27
177 14 -27
178 2 -27
179 2 -27
180 2 -27
181 2 -27
182 -30 13
183 -30 13
184 -30 13
185 11 -3
186 11 -3
187 11 -3
188 11 -3
189 -20 -14
190 -20 -14
191 -20 -14
192 -20 -14
193 29 49
194 29 49
195 29 49
196 29 49
197 29 49
198 -44 45
199 -44 45
200 -44 45
201 -44 45
202 -44 45
203 -44 45
204 -44 45
205 -34 -19
206 -34 -19
207 -34 -19
208 -45 -26
209 -45 -26
210 50 27
211 50 27
212 50 27
213 50 27
214 4 46
215 4 46
216 4 46
217 -42 -24
218 -42 -24
219 -42 -24
220 -42 -24
221 -42 -24
222 -18 -43
223 -18 -43
224 -18 -43
225 -18 -43
226 39 -48
227 39 -48
228 29 0
229 29 0
230 -43 31
231 -43 31
232 -43 31
233 -43 31
234 -43 31
235 -1 1
236 -1 1
237 -1 1
238 -1 1
239 -1 1
240 -1 1
241 -1 1
242 -27 21
243 -27 21
244 -27 21
245 -27 21
246 -32 -21
247 -32 -21
248 -15 -33
249 -15 -33
250 -15 -33
251 -15 -33
252 -15 -33
253 -15 -33
254 16 -19
255 16 -19
256 16 -19
257 -46 -22
258 -46 -22
259 -46 -22
260 -46 -22
261 -46 -22
262 2 -36
263 2 -36
264 19 50
265 36 31
266 36 31
267 36 31
268 36 31
269 36 31
270 36 31
271 30 -24
272 30 -24
273 30 -24
274 30 -24
275 30 -24
276 -30 -28
277 -30 -28
278 -30 -28
279 -37 17
280 -37 17
281 -37 17
282 15 26
283 15 26
284 15 26
285 15 26
286 15 26
287 23 -7
288 23 -7
289 23 -7
290 23 -7
291 23 -7
292 -42 -21
293 -42 -21
294 -42 -21
295 -42 -21
296 -42 -21
297 -42 -21
298 49 15
299 49 15
300 49 15
301 49 15
302 49 15
303 -15 -30
304 -15 -30
305 -15 -30
306 -15 -30
307 -15 -30
308 18 -2
309 18 -2
310 18 -2
311 44 -7
312 44 -7
313 44 -7
314 44 -7
315 44 -7
316 44 -7
317 7 -22
318 7 -22
319 38 44
320 38 44
321 38 44
322 38 44
323 38 44
324 38 44
325 21 4
326 21 4
327 21 4
328 -27 -50
329 -27 -50
330 -27 -50
331 46 -5
332 46 -5
333 46 -5
334 46 -5
335 -44 -10
336 27 -48
337 27 -48
338 27 -48
339 27 -48
340 28 -45
341 28 -45
342 28 -45
343 28 -45
344 -30 -26
345 -30 -26
346 -30 -26
347 43 30
348 43 30
349 32 31
350 32 31
351 32 31
352 35 23
353 35 23
354 35 23
355 35 23
356 35 23
357 35 23
358 27 8
359 27 8
360 27 8
361 27 8
362 27 8
363 27 8
364 -12 18
365 -12 18
366 -12 18
367 -12 18
368 -12 18
369 -12 18
370 42 34
371 42 34
372 42 34
373 42 34
374 42 34
375 45 -40
376 45 -40
377 45 -40
378 45 -40
379 9 46
380 9 46
381 9 46
382 9 46
383 9 46
384 -24 -1
385 -24 -1
386 -24 -1
387 -24 -1
388 -9 50
389 -9 50
390 -9 50
391 -9 50
392 -9 50
393 -7 47
394 -7 47
395 -7 47
396 -7 47
397 -7 47
398 -7 47
399 11 43
400 11 43
401 11 43
402 5 -7
403 5 -7
404 5 -7
405 20 -28
406 20 -28
407 -24 -13
408 21 24
409 21 24
410 21 24
411 21 24
412 -13 34
413 -13 34
414 -13 34
415 -13 34
416 -13 34
417 -13 34
418 35 16
419 35 16
420 -47 -1
421 -47 -1
422 -47 -1
423 -47 -1
424 -47 -1
425 8 39
426 8 39
427 8 39
428 8 39
429 8 39
430 38 35
431 38 35
432 38 35
433 38 35
434 15 -22
435 15 -22
436 15 -22
437 15 -22
438 -19 46
439 -19 46
440 -19 46
441 -19 46
442 -41 28
443 -41 28
444 -41 28
445 -6 -2
446 -6 -2
447 -6 -2
448 -6 -2
449 -44 36
450 -44 36
451 -44 36
452 -23 7
453 -23 7
454 -23 7
455 -23 7
456 -23 7
457 -33 13
458 -33 13
459 -33 13
460 -33 13
461 -1 13
462 -1 13
463 -1 13
464 -1 13
465 -1 13
466 -1 13
467 -31 48
468 -31 48
469 -31 48
470 -32 11
471 -32 11
472 -32 11
473 -32 11
474 -32 11
475 -35 15
476 -35 15
477 -35 15
478 -35 15
479 -31 -11
480 -31 -11
481 -31 -11
482 -31 -11
483 -31 -11
484 -31 -11
485 22 -16
486 22 -16
487 22 -16
488 22 -16
489 22 -16
490 22 -16
491 6 49
492 6 49
493 6 49
494 6 49
495 -37 20
496 -37 20
497 -37 20
498 -37 20
499 -14 29
500 -14 29
501 -14 29
502 -14 29
503 40 29
504 40 29
505 40 29
506 40 29
507 40 29
508 40 29
509 40 29
510 -46 -24
511 -46 -24
512 32 -11
513 32 -11
514 -15 37
515 -15 37
516 -15 37
517 -15 37
518 16 9
519 16 9
520 16 9
521 16 9
522 -9 20
523 -9 20
524 -9 20
525 -9 20
526 -9 20
527 43 -46
528 43 -46
529 43 -46
530 43 -46
531 43 -46
532 43 -46
533 43 -46
534 15 30
535 15 30
536 47 38
537 47 38
538 47 38
539 47 38
540 47 38
541 -26 -37
542 -26 -37
543 -26 -37
544 -26 -37
545 -26 -37
546 -26 -37
547 37 22
548 37 22
549 4 -29
550 4 -29
551 4 -29
552 4 -29
553 -22 9
554 -22 9
555 -22 9
556 -22 9
557 -22 9
558 21 -7
559 21 -7
560 21 -7
561 21 -7
562 21 -7
563 21 -7
564 21 -7
565 25 -7
566 25 -7
567 25 -7
568 25 -7
569 25 -7
570 25 -7
571 -13 -23
572 -13 -23
573 -13 -23
574 2 -40
575 2 -40
576 2 -40
577 48 20
578 48 20
579 48 20
580 -12 -23
581 -12 -23
582 -12 -23
583 -12 -23
584 -12 -23
585 -34 -32
586 -34 -32
587 -34 -32
588 -27 48
589 -27 48
590 -27 48
591 -27 48
592 -50 -21
593 -50 -21
594 -50 -21
595 13 0
596 13 0
597 13 0
598 13 0
599 13 0
600 48 49
601 48 49
602 48 49
603 -9 34
604 -9 34
605 -9 34
606 -15 -46
607 -15 -46
608 -15 -46
609 -15 -46
610 -15 -46
611 -15 -46
612 43 -18
613 43 -18
614 43 -18
615 43 -18
616 43 -18
617 -45 -25
618 -45 -25
619 -45 -25
620 -45 -25
DEMAND_SECTION
1 0
2 20
3 10
4 5
5 20
6 10
7 10
8 1
9 1
10 1
11 20
12 10
13 1
14 1
15 20
16 5
17 1
18 20
19 5
20 1
21 1
22 1
23 1
24 10
25 5
26 1
27 1
28 10
29 5
30 20
31 5
32 1
33 1
34 1
35 20
36 5
37 1
38 1
39 1
40 1
41 20
42 5
43 1
44 1
45 1
46 1
47 20
48 10
49 1
50 1
51 20
52 10
53 1
54 1
55 1
56 1
57 20
58 10
59 1
60 1
61 1
62 10
63 5
64 1
65 1
66 1
67 10
68 5
69 1
70 20
71 20
72 1
73 20
74 20
75 1
76 1
77 1
78 20
79 20
80 5
81 20
82 20
83 1
84 1
85 1
86 1
87 20
88 20
89 5
90 10
91 5
92 1
93 1
94 1
95 1
96 10
97 5
98 20
99 20
100 5
101 1
102 1
103 20
104 5
105 1
106 20
107 10
108 5
109 1
110 1
111 20
112 1
113 20
114 5
115 1
116 1
117 1
118 20
119 1
120 1
121 20
122 20
123 5
124 1
125 1
126 1
127 1
128 10
129 5
130 1
131 20
132 20
133 5
134 1
135 1
136 20
137 20
138 1
139 1
140 1
141 1
142 20
143 20
144 1
145 1
146 1
147 20
148 20
149 5
150 10
151 5
152 1
153 20
154 10
155 1
156 1
157 10
158 5
159 1
160 20
161 20
162 5
163 1
164 1
165 20
166 10
167 5
168 1
169 1
170 1
171 1
172 10
173 5
174 20
175 1
176 1
177 1
178 20
179 20
180 5
181 1
182 20
183 1
184 1
185 20
186 20
187 5
188 1
189 20
190 5
191 1
192 1
193 20
194 1
195 1
196 1
197 1
198 20
199 10
200 5
201 1
202 1
203 1
204 1
205 20
206 20
207 10
208 20
209 10
210 20
211 1
212 1
213 1
214 20
215 20
216 10
217 20
218 5
219 1
220 1
221 1
222 20
223 10
224 5
225 1
226 10
227 5
228 20
229 1
230 20
231 20
232 1
233 1
234 1
235 20
236 20
237 5
238 1
239 1
240 1
241 1
242 20
243 1
244 1
245 1
246 20
247 20
248 20
249 20
250 5
251 1
252 1
253 1
254 10
255 5
256 1
257 20
258 5
259 1
260 1
261 1
262 20
263 20
264 20
265 20
266 20
267 5
268 1
269 1
270 1
271 20
272 1
273 1
274 1
275 1
276 20
277 20
278 5
279 20
280 10
281 5
282 20
283 10
284 1
285 1
286 1
287 20
288 10
289 5
290 1
291 1
292 20
293 20
294 1
295 1
296 1
297 1
298 20
299 20
300 5
301 1
302 1
303 20
304 20
305 5
306 1
307 1
308 20
309 20
310 1
311 20
312 20
313 5
314 1
315 1
316 1
317 20
318 5
319 20
320 10
321 1
322 1
323 1
324 1
325 20
326 1
327 1
328 20
329 10
330 1
331 20
332 1
333 1
334 1
335 20
336 20
337 20
338 5
339 1
340 20
341 20
342 1
343 1
344 20
345 20
346 10
347 20
348 5
349 20
350 5
351 1
352 20
353 10
354 1
355 1
356 1
357 1
358 20
359 10
360 5
361 1
362 1
363 1
364 20
365 10
366 1
367 1
368 1
369 1
370 10
371 1
372 1
373 1
374 1
375 10
376 1
377 1
378 1
379 20
380 10
381 1
382 1
383 1
384 20
385 20
386 5
387 1
388 10
389 1
390 1
391 1
392 1
393 20
394 20
395 5
396 1
397 1
398 1
399 10
400 5
401 1
402 20
403 1
404 1
405 10
406 5
407 20
408 10
409 5
410 1
411 1
412 20
413 20
414 5
415 1
416 1
417 1
418 20
419 5
420 20
421 1
422 1
423 1
424 1
425 20
426 1
427 1
428 1
429 1
430 20
431 10
432 5
433 1
434 10
435 1
436 1
437 1
438 20
439 20
440 1
441 1
442 20
443 1
444 1
445 20
446 20
447 5
448 1
449 20
450 20
451 5
452 20
453 10
454 5
455 1
456 1
457 20
458 10
459 1
460 1
461 20
462 5
463 1
464 1
465 1
466 1
467 20
468 10
469 1
470 10
471 5
472 1
473 1
474 1
475 10
476 5
477 1
478 1
479 20
480 5
481 1
482 1
483 1
484 1
485 20
486 10
487 1
488 1
489 1
490 1
491 10
492 5
493 1
494 1
495 10
496 1
497 1
498 1
499 20
500 20
501 5
502 1
503 20
504 10
505 5
506 1
507 1
508 1
509 1
510 20
511 5
512 20
513 1
514 20
515 5
516 1
517 1
518 20
519 10
520 1
521 1
522 10
523 1
524 1
525 1
526 1
527 20
528 10
529 5
530 1
531 1
532 1
533 1
534 20
535 5
536 20
537 10
538 5
539 1
540 1
541 20
542 10
543 5
544 1
545 1
546 1
547 20
548 5
549 20
550 10
551 1
552 1
553 20
554 10
555 5
556 1
557 1
558 20
559 20
560 5
561 1
562 1
563 1
564 1
565 20
566 10
567 1
568 1
569 1
570 1
571 20
572 1
573 1
574 20
575 10
576 5
577 10
578 5
579 1
580 20
581 20
582 1
583 1
584 1
585 20
586 10
587 5
588 10
589 5
590 1
591 1
592 20
593 20
594 10
595 20
596 20
597 1
598 1
599 1
600 20
601 20
602 5
603 10
604 5
605 1
606 20
607 20
608 1
609 1
610 1
611 1
612 20
613 10
614 1
615 1
616 1
617 20
618 20
619 5
620 1
DEPOT_SECTION
1
-1
EOF