Normalized Data/p04_1_normalized_split0.sol
619 -5 4 407 410 409 408 533 281 283 284 285 282 -7 8 9 6 225 226 532 530 528 529 531 527 526 374 377 376 375 150 151 149 -10 12 13 345 343 344 277 275 -11 246 245 206 204 205 -21 17 18 20 22 19 286 288 558 562 557 561 -32 33 31 30 29 472 473 471 470 469 456 457 181 -38 34 37 36 39 35 555 552 556 553 452 451 455 453 454 -48 49 47 46 338 336 335 337 342 340 434 -67 68 70 69 71 258 256 257 216 219 220 217 -73 72 460 78 77 -74 76 75 59 57 60 58 56 390 389 387 391 388 394 392 397 395 393 396 -79 426 424 427 16 15 14 159 160 162 -117 119 118 108 106 105 109 107 401 403 402 -128 127 129 449 230 233 229 443 441 442 -140 136 138 137 139 135 279 280 278 474 476 475 477 459 458 -141 143 144 145 142 124 123 125 122 120 121 126 534 -155 154 152 153 146 147 148 339 341 -156 157 158 303 302 582 579 581 583 580 -179 93 92 94 89 90 91 261 262 574 573 575 -180 178 177 549 550 551 548 316 317 -184 186 185 2 1 3 594 -187 569 567 110 111 311 312 313 310 314 315 331 332 333 330 -189 88 188 86 190 87 191 406 447 446 -196 193 194 195 192 43 45 44 40 41 42 599 601 600 323 320 -200 198 201 202 199 203 197 52 51 54 55 53 50 448 450 232 231 -218 208 207 618 619 617 616 295 292 293 -224 222 221 223 252 247 248 572 570 571 -238 236 237 235 234 239 240 -249 250 251 133 132 131 130 134 606 608 605 609 607 610 -253 254 255 436 435 433 173 175 174 176 404 405 489 484 487 488 486 485 -260 259 592 591 593 509 510 294 291 296 -268 264 265 267 266 269 432 429 431 348 349 350 -270 273 271 272 274 614 612 615 613 611 511 512 28 27 560 563 559 -276 585 584 586 543 541 542 540 306 305 304 -290 287 289 568 566 564 565 228 227 358 360 357 362 -325 324 326 417 546 547 351 352 356 355 354 -329 327 328 62 64 63 61 65 98 97 100 99 101 545 544 -353 504 371 369 372 370 373 539 537 536 538 535 318 319 321 322 430 -361 359 167 165 169 170 166 168 164 298 299 297 301 300 418 -363 364 242 244 243 241 104 103 102 496 495 497 494 183 182 554 -366 368 365 367 112 115 114 116 113 467 466 468 590 589 587 588 515 516 514 522 521 524 525 -385 384 383 172 171 444 445 -386 96 95 419 423 422 421 420 334 66 481 479 478 480 483 482 -399 400 398 263 82 81 80 83 84 85 493 491 492 490 -413 415 411 412 416 414 500 499 501 498 523 -425 428 378 380 381 379 382 215 213 214 163 161 461 465 464 463 462 -505 508 506 503 507 502 347 346 211 210 209 212 576 578 577 -513 439 438 437 440 24 26 25 23 602 604 603 -520 519 518 517 308 307 309 595 597 596 598 0 





OBJ=
4351.091
BEST_KNOWN=
0.000